p edge 70 420
e 1 3
e 1 8
e 1 36
e 1 46
e 1 46
e 1 55
e 2 1
e 2 5
e 2 15
e 2 24
e 2 25
e 2 38
e 3 1
e 3 8
e 3 27
e 3 29
e 3 39
e 3 67
e 4 5
e 4 19
e 4 51
e 4 52
e 4 64
e 4 65
e 5 10
e 5 13
e 5 27
e 5 29
e 5 30
e 5 61
e 6 5
e 6 7
e 6 23
e 6 23
e 6 47
e 6 50
e 7 1
e 7 25
e 7 25
e 7 26
e 7 29
e 7 50
e 8 18
e 8 43
e 8 58
e 8 61
e 8 62
e 8 63
e 9 7
e 9 12
e 9 31
e 9 37
e 9 63
e 9 70
e 10 30
e 10 35
e 10 36
e 10 42
e 10 56
e 10 70
e 11 18
e 11 32
e 11 40
e 11 41
e 11 60
e 11 68
e 12 6
e 12 14
e 12 30
e 12 32
e 12 48
e 12 68
e 13 20
e 13 34
e 13 36
e 13 37
e 13 48
e 13 67
e 14 29
e 14 30
e 14 37
e 14 40
e 14 44
e 14 55
e 15 4
e 15 32
e 15 33
e 15 40
e 15 40
e 15 69
e 16 11
e 16 11
e 16 39
e 16 39
e 16 46
e 16 54
e 17 6
e 17 10
e 17 19
e 17 37
e 17 47
e 17 54
e 18 7
e 18 12
e 18 21
e 18 36
e 18 40
e 18 62
e 19 8
e 19 9
e 19 11
e 19 29
e 19 42
e 19 45
e 20 5
e 20 6
e 20 21
e 20 45
e 20 55
e 20 64
e 21 18
e 21 22
e 21 25
e 21 33
e 21 37
e 21 64
e 22 3
e 22 13
e 22 16
e 22 18
e 22 57
e 22 60
e 23 8
e 23 12
e 23 38
e 23 49
e 23 64
e 23 66
e 24 2
e 24 27
e 24 29
e 24 50
e 24 55
e 24 66
e 25 16
e 25 24
e 25 39
e 25 45
e 25 68
e 25 69
e 26 7
e 26 19
e 26 30
e 26 32
e 26 34
e 26 35
e 27 14
e 27 24
e 27 35
e 27 54
e 27 59
e 27 62
e 28 5
e 28 29
e 28 29
e 28 31
e 28 57
e 28 59
e 29 7
e 29 19
e 29 48
e 29 52
e 29 68
e 29 70
e 30 1
e 30 3
e 30 15
e 30 21
e 30 44
e 30 64
e 31 16
e 31 17
e 31 21
e 31 35
e 31 53
e 31 70
e 32 10
e 32 26
e 32 26
e 32 40
e 32 57
e 32 65
e 33 13
e 33 35
e 33 36
e 33 39
e 33 48
e 33 58
e 34 19
e 34 23
e 34 35
e 34 52
e 34 59
e 34 63
e 35 9
e 35 9
e 35 34
e 35 37
e 35 41
e 35 70
e 36 2
e 36 2
e 36 2
e 36 61
e 36 63
e 36 68
e 37 29
e 37 31
e 37 36
e 37 51
e 37 66
e 37 67
e 38 5
e 38 26
e 38 45
e 38 53
e 38 57
e 38 69
e 39 3
e 39 15
e 39 27
e 39 38
e 39 57
e 39 59
e 40 23
e 40 28
e 40 31
e 40 33
e 40 45
e 40 57
e 41 2
e 41 11
e 41 20
e 41 30
e 41 39
e 41 47
e 42 4
e 42 38
e 42 51
e 42 52
e 42 54
e 42 62
e 43 5
e 43 11
e 43 24
e 43 40
e 43 59
e 43 62
e 44 14
e 44 20
e 44 24
e 44 27
e 44 60
e 44 64
e 45 41
e 45 46
e 45 47
e 45 59
e 45 66
e 45 67
e 46 5
e 46 11
e 46 41
e 46 41
e 46 45
e 46 67
e 47 3
e 47 26
e 47 27
e 47 28
e 47 30
e 47 43
e 48 3
e 48 8
e 48 9
e 48 16
e 48 29
e 48 33
e 49 20
e 49 22
e 49 23
e 49 27
e 49 31
e 49 50
e 50 12
e 50 14
e 50 19
e 50 57
e 50 58
e 50 63
e 51 12
e 51 18
e 51 62
e 51 66
e 51 70
e 51 70
e 52 10
e 52 18
e 52 32
e 52 45
e 52 58
e 52 61
e 53 1
e 53 5
e 53 32
e 53 46
e 53 49
e 53 58
e 54 3
e 54 7
e 54 25
e 54 29
e 54 41
e 54 50
e 55 11
e 55 13
e 55 27
e 55 52
e 55 65
e 55 65
e 56 3
e 56 11
e 56 33
e 56 50
e 56 53
e 56 66
e 57 3
e 57 9
e 57 10
e 57 48
e 57 61
e 57 64
e 58 4
e 58 25
e 58 31
e 58 59
e 58 60
e 58 61
e 59 12
e 59 13
e 59 34
e 59 40
e 59 47
e 59 56
e 60 5
e 60 10
e 60 20
e 60 31
e 60 44
e 60 65
e 61 1
e 61 13
e 61 31
e 61 37
e 61 60
e 61 66
e 62 11
e 62 24
e 62 25
e 62 26
e 62 32
e 62 40
e 63 2
e 63 34
e 63 35
e 63 38
e 63 52
e 63 55
e 64 15
e 64 27
e 64 40
e 64 42
e 64 43
e 64 63
e 65 5
e 65 12
e 65 12
e 65 17
e 65 29
e 65 63
e 66 9
e 66 10
e 66 19
e 66 23
e 66 29
e 66 53
e 67 4
e 67 9
e 67 29
e 67 39
e 67 49
e 67 54
e 68 11
e 68 15
e 68 19
e 68 25
e 68 44
e 68 64
e 69 41
e 69 50
e 69 55
e 69 57
e 69 59
e 69 68
e 70 19
e 70 20
e 70 27
e 70 44
e 70 61
e 70 68
